     60      3     36    157     13
     33     39     39
     35      9     47     12     48     33      8     22     53      9     33     11     19     51     25     36     16      3      4     59     15     20     49     19      0     42      7     57     11     51      3     43     52     51      0     57     24     53     48     29     25      4     42      2     16     51     35     10     32     54     37     32     36     56      9     27     31     20     51     55     11      0     17     22     48     14     46      1      8     12     49     31     46     30     27     36     23     52      9     50     35     44      1     37     33      0     18     35     16     10     45     55     12     38     29      4      8     23      3     50     13     12     18     10     22     54      9     32     28     13      5      6     31     23     48      6     52     11      5     56      6     17     25     26     55     38     54     45     40     14     19     32     12     47     48     11     29     22     49     43      8     31     18     28     56     53     26     39     35     36     57     14      9     36     42     51     18     49     15     23      0     13     35     52     16     36     48      8     47      7     37     21     46     50     43     26     53     41     10     51     44     38     13     15     42     21     33     27     38     17     53     20     14     48      9     27     26     55     28      5     33     42      2     31     26     44     19     13     15     41     14     54     27     21     17     35     45      9     37     43     38     47      0      2     31     35     18     48     44     43     47     10     20     24     44     12     29     25     26     27     33      5     53     44     47      1     20      4     37     33
     16      8     24     20     46     -7    100     56     10     81     31     20      0     67     43     38    122    123     79    -19     35     64     -6      9      4    101     96     13     44     -4      1    -30    -19     19     28     -1     74     27    118     20    -13      6     -3     64     44     43     25     48     39     13
      7     15     15     15	    302    123     10     30      9      0      0    185      0      0      0      0      0      0    142      0      0      0      0     71     91      0      0    189      0     21     91      0      0      0    -50      0      0      0      0      0      0      0     99    -10      0      0      0     80      0      0      0      0      0      0      0      0      0      0      0      0      0      0      0      0      0      0      0    101      0
      8     14     11     15	    156     94     32     32      6      0      0      0      0      0      0      0      0      0      7      0      0      0      0      0      0      0      0      0     72      0      0      0      0      0     38      0      0      0      0      0      0      7      0      0      0      0      0      0     86      0      0      0      0      0     80      0      0      0     29      0      0      0    113      0     65      0      0      0    120
      8     14     14     14	    374    219     35     35      2    185      0      0      0     72      0      0      0      0      0      0      0      0      0      0    111      0      0      0     11      0      0      0      0      0      0      0      8      0      0      0      0      0      0      0      0      0      0      0      0      0      0    250      0      0      0     32      0      0      0      0      0      0      0      0     87      0      0      0     68
     10     12     12     11	    297    106     27     34      6      0      0      0      0      0      0      0      0      0      0      0      0      0      0      0      0      0      0      3      0      0      0      0      0      0      0      0      0      0      0      0      0      0      0      0      0    -37      0      0      0      0      0      2      0      0      0      0     -1      0      0      0      0      0      0      0      0    167      0    104    206
     12     11     12     15	    250    117     16     34      2      0      0     72      0      0      0      0      0      0      0      0      0    108      0      0      0      0     23      0      0      0    102      0      0      0     98      0      0      0      0      0      0      0    100      0      0     68      0      0      0      0      0      0      0      0      0      0     10      0      0     98    117     92     83      0     40      0      0      0     29
      8     12     12     13	    104     51     30     32      8      0      0      0      0      0      0      0      0      0      0      0     41      0      0      0      0      0     66     60      0      0      0      0      0     19      0      0      0      0      0      0      0      0     -6      0      0      0     13     61      0      0      0      0      0      0      0     75     40      0      0      0      0      0      0      0      0      0     18      0      0
     11     12     14     10	    471    315     34     36      1      0      0      0      0      0      0      0      0      0    -21      0      0      0      0      0      0      0      0      0      0      0      0     19      0      0      0      0      0    161    157      0      0      0    131      0      0      0      0      0      0      0      0    228      0      0    -16    -25      0     65      0      0      0      0     43    -14      0      0     18      0      0
      9     11     15     13	    101     68      9     25      6      0      0      0      0      0      0      0      0      0      0      0      0      0      0      0     23     -4      0      0      0      0      0      0      0      0      0      0     43      4      0      0      0      0      0      0      0      0      0      0      0      0      0      0      0      0     62      0      0      0      0      0      0      0      3      0     40      0      0      0      0
      8     13     11     10	    465    109     10     17      3      0      0      0      0      0      0      0      0      0      0     81      0      0      0      0      0      0     84      0      0      0      1      0      0      0      0      0      0      0      0      0      0    371      0     78      0      0      0      0    165      0      0      0      0     74      0      0      0      0      0      0      0      0      0      0      0      0    -13     12      0
     11     13     14     12	    413    106     12     28      4    142      7      0      0      0      0    -21      0      0      0      0      0      0      0      0      0      0      0      0      0      0      0      0    191      0      0      0      0      0      0      0      0      0      0     -6      0      0      0      0      0      0      0      0    -38      0      0      0      0      0      0      0      0    150    -49      0     12      0      0      0      0
      7     12     11     13	    229    100     14     14      1      0      0      0      0      0      0      0      0     81      0      0      0      0     32    111      0      0      6    149      0      0      0      0     54      0     64      0     79      0      0      0      0     43      0      0      0      0      0      0      0     30      0      0      0      0      0      0      0      0      0      0      0      0      0      0      0    161      0    147     93
     11     14     11     11	    459     71     21     23      5      0      0      0      0      0     41      0      0      0      0      0      0      0      0      0      0      0     45     81      0      0      0    233      0      0    195      0      0      0      0    -77      0      0    178     19      0      0      0    118      0    133      0      0      0      0      0      0    135      0      0    341      0      0     89      0      0      0    185      0      0
      7     14     11     10	    156    100     13     17      7      0      0      0      0    108      0      0      0      0      0      0      0      0      0      0      0      0      0      0      0      0      0     -2     81      0      0      0      0      0      0    -26      0      0      0      0    100     97      0      0    -18      0      0      0     84      0      0      0    121      0      0      0      0     27      0      0      0      0      0      0      0
      6     14     11     13	    138     81     34     36      6      0      0      0      0      0      0      0      0      0      0     32      0      0      0      0      0      0      0      0      0      0      0      0      0      0     88      0      0     78      0     21      2      0      0     79      0     44      0      0    -13      0      0      0      0      0      0      0      0      0      0      0     64      0      0      0     50      0      0      0      0
      7     14     10     10	    348    198     17     19      8     71      0      0      0      0      0      0      0      0      0    111      0      0      0      0      0     34      5      0      0      0      0     19      0      0      0    105      5      0      0      0      0      0      0      0      0     17      0      0    134    223      0      0     56      0      0      0    131    193      0      0      0      0      0      0    -56      0      0      0      0
      9     11     11     11	    368    144     23     27      9     91      0    111      0      0      0      0     23      0      0      0      0      0      0      0      0      0      0      0      0      0      0    -31      0      0    199      0      0      0      0      0      0     14      0      0      0      0      0    -51    169      0      0     30      0      0      0     86      0      0      0    203     34     46      0      0      0      0      0      0      0
     12     10     13     15	    457    174     35     35      8      0      0      0      0      0      0      0     -4      0      0      0      0      0      0     34      0      0      0      0      0      0    169      0      0      0      0      0      0      0      0    273     79      0      0      0      0      0      0      0     34      0      0      0     94      0      0      0      0      0      0      0      0      0     93     81      0      0    216    160      6
      7     15     13     14	    125     87     23     25      6      0      0      0      0     23     66      0      0     84      0      6     45      0      0      5      0      0      0      0      0     65      0      0      0      0      0      0      0      0      0      0     45      0     12      0      0    -12      0     93      0      0      0      0      8     72      0     92      0      0      0      0      0     65      0     97      0      0      0      0      0
      7     15     12     10	    394    187      7     13      7    189      0      0      3      0     60      0      0      0      0    149     81      0      0      0      0      0      0      0      0      0      0      0    245      0      0      0      0    154      0    103      0      0      0     -8      0      0      0      0      0    204      0      0      0      0      0      0      0      0      0    204      0      0      0      0     27      0      0      0      0
      7     13     12     15	    118     65     23     36     10      0     72     11      0      0      0      0      0      0      0      0      0      0      0      0      0      0      0      0      0      0      0      0      0      0      0      0      0      0      0      0      0      0    -19      0      0      0      0      0      0      0      0      0      0    -21     33      0      0      0      0     28      0      0     79      0      0      0      0      0      0
      9     14     15     11	    146     75     29     29      9     21      0      0      0      0      0      0      0      0      0      0      0      0      0      0      0      0     65      0      0      0     34      0      0      0      0      0      0      0     62     46      0     53      0      0      0      0      0      0      0      0      0      0      0      0      0      0     91      0      0     96      0      0      0      0      0      0      0      0      0
     10     10     12     11	    247     90     23     31      8     91      0      0      0    102      0      0      0      1      0      0      0      0      0      0      0    169      0      0      0     34      0    -41     62      0      0      0      0      0      0     30      0     89      0      0    173    187      0      0      0    170      3      0      0    166      0      0      0      0      0      0      0    -34      0      0      0      0     94      0    109
     11     13     13     11	    294    143     30     32      4      0      0      0      0      0      0     19      0      0      0      0    233     -2      0     19    -31      0      0      0      0      0    -41      0    162     30    103      0     20      0      0    114      0      0      0      0    215      0      0      0      0     55      0      0      0      0      0      0      0      0      0      0     22      0      0      0      0      0      0      0      0
     11     15     12     11	    367    173     27     30      3      0      0      0      0      0      0      0      0      0    191     54      0     81      0      0      0      0      0    245      0      0     62    162      0      0      0      0     88      1      0      0      0      0      0      0      0      0      0      0      0      0    256      0      0      0      0      0     -6      0      0      0      0      0      0    118      0      0      0      0      0
      8     13     10     11	    448     89     23     36      3      0      0      0      0      0     19      0      0      0      0      0      0      0      0      0      0      0      0      0      0      0      0     30      0      0      0      0      0      0     25      0      0      0      0      0    101    164    138      0      5     35      0     80      0      0    232     11    -19      0      0    318      0    167     12      0      0      0      0      0      0
      6     12     12     15	    275     96     36     36     10    -50     38      0      0     98      0      0      0      0      0     64    195      0     88      0    199      0      0      0      0      0      0    103      0      0      0    154      6     28     23      0      0    -12      0      0     98      0      0      0      0      0     20      0     89    -25    -29      0      0      0     22      0      0    113      0    148      0      0    117    175      0
     12     11     14     14	    351    104     26     36      9      0      0      0      0      0      0      0      0      0      0      0      0      0      0    105      0      0      0      0      0      0      0      0      0      0    154      0     57      0      0      0      0      0      0      0      0     73      0      0     60      0      0      0      0      0      0     61      0      0      0    233      0      0      0      0    -46    131      0      0      0
      9     13     13     12	    121     64     20     35     10      0      0      8      0      0      0      0     43      0      0     79      0      0      0      5      0      0      0      0      0      0      0     20     88      0      6     57      0      0      0     61     82    -19      0      0      0      0      0     16      0     76      0      0      0      0      0      0     77     12      0      0      0      0      0      0      0      0      0      0      0
      9     13     14     12	    485    276     24     24      9      0      0      0      0      0      0    161      4      0      0      0      0      0     78      0      0      0      0    154      0      0      0      0      1      0     28      0      0      0      0     78      0      0      0      0      0      0      0      0      0      0      0      0      0    161      0    127      0      0      0      0      0      0      0      0      0      0    251      0      0
      7     12     11     14	    293    172     15     27      8      0      0      0      0      0      0    157      0      0      0      0      0      0      0      0      0      0      0      0      0     62      0      0      0     25     23      0      0      0      0      0      0      0      0      0    189      8    208      0      0      0      0    157      0      0      0      0     59    114      0      0      0    158      0      0    125      0      0    -13      0
     10     13     10     14	    498     95     16     21      2      0      0      0      0      0      0      0      0      0      0      0    -77    -26     21      0      0    273      0    103      0     46     30    114      0      0      0      0     61     78      0      0      0      0      0      0      0      0      0      0    -40      0      0      0      0      0      0      0     60    -39      0      0      0      0     23      0      0    202    372      0      0
      7     13     14     10	    320    133     23     34      9      0      0      0      0      0      0      0      0      0      0      0      0      0      2      0      0     79     45      0      0      0      0      0      0      0      0      0     82      0      0      0      0      0    207      0      0      0      0    109     97      0      0      0     41      0    132      0      0      0      0      0      0      0      0      0      0    -31      0     24      0
      8     14     14     10	    465    172      9     16      1      0      7      0      0      0      0      0      0    371      0     43      0      0      0      0     14      0      0      0      0     53     89      0      0      0    -12      0    -19      0      0      0      0      0      0      0      0      0      0      0      0      0      0      0      0      0      0    130      2      0      0      0      0     43    122     55      0      0      0      0      0
     11     14     11     10	    490     96     11     29      4     99      0      0      0    100     -6    131      0      0      0      0    178      0      0      0      0      0     12      0    -19      0      0      0      0      0      0      0      0      0      0      0    207      0      0     59      0      0      0      0      0      0      0      0      0      0      0      0      0    281      0      0      0      0      0      0    102    281      0      0    228
     11     12     13     14	    128     50     31     35      7    -10      0      0      0      0      0      0      0     78     -6      0     19      0     79      0      0      0      0     -8      0      0      0      0      0      0      0      0      0      0      0      0      0      0     59      0      0      0      0      0      0      0      0      0      0    -19     39      0      0      0      0      0      0      0      0      0      0      0      0      0     76
     12     15     13     15	    329    204     33     36      9      0      0      0      0      0      0      0      0      0      0      0      0    100      0      0      0      0      0      0      0      0    173    215      0    101     98      0      0      0    189      0      0      0      0      0      0      0    115      0      0      0      0      0     51      0      0      0      0      0      0      0    138    -17     75      0      0      0      0      0      0
     12     12     10     12	    421    126     16     21      6      0      0      0    -37     68      0      0      0      0      0      0      0     97     44     17      0      0    -12      0      0      0    187      0      0    164      0     73      0      0      8      0      0      0      0      0      0      0      0      0      0      0      0      0      0      0     10      8      0      0      0      0    148      0      0      0      0      0    304    199      0
     10     12     12     13	    293    111     23     28      6      0      0      0      0      0     13      0      0      0      0      0      0      0      0      0      0      0      0      0      0      0      0      0      0    138      0      0      0      0    208      0      0      0      0      0    115      0      0      0      0      0      0      0      0      0      0      0      0      0     77      0      0      0    -39      0    146    -39      0      0    -36
      9     10     10     10	    356    119     12     20     10     80      0      0      0      0     61      0      0      0      0      0    118      0      0      0    -51      0     93      0      0      0      0      0      0      0      0      0     16      0      0      0    109      0      0      0      0      0      0      0      0      0      0      0      0      0      0      0      0      0      0      0      0      0      0      0      0    112    164      0      0
      7     14     11     14	    245     62     18     32      4      0     86      0      0      0      0      0      0    165      0      0      0    -18    -13    134    169     34      0      0      0      0      0      0      0      5      0     60      0      0      0    -40     97      0      0      0      0      0      0      0      0      0    100      0      0     49      0      0      0     29      0      0      9      0      0      0      0      0      0      0    125
      6     15     12     10	    300    103     36     36      4      0      0      0      0      0      0      0      0      0      0     30    133      0      0    223      0      0      0    204      0      0    170     55      0     35      0      0     76      0      0      0      0      0      0      0      0      0      0      0      0      0      0      0      0     69      0      0      0      0      0      0      0      0      0     31      0      0      0      0      0
      7     14     12     11	    458    319     11     28      4      0      0      0      0      0      0      0      0      0      0      0      0      0      0      0      0      0      0      0      0      0      3      0    256      0     20      0      0      0      0      0      0      0      0      0      0      0      0      0    100      0      0      0      0      0      0      0    164      0      0      0      0    146      0      0     94      0      0      0      1
      7     11     12     13	    365    170     22     26      8      0      0    250      2      0      0    228      0      0      0      0      0      0      0      0     30      0      0      0      0      0      0      0      0     80      0      0      0      0    157      0      0      0      0      0      0      0      0      0      0      0      0      0      0      0      0      0      0      0      0      0      0      0      0      0     -3      0      0      0      0
      9     15     10     12	    191    121     14     31      4      0      0      0      0      0      0      0      0      0    -38      0      0     84      0     56      0     94      8      0      0      0      0      0      0      0     89      0      0      0      0      0     41      0      0      0     51      0      0      0      0      0      0      0      0     49      0      0      0     13      0      0      0      0      0      0    123      0      0      0      5
      6     12     15     15	    350    172      8     14      1      0      0      0      0      0      0      0      0     74      0      0      0      0      0      0      0      0     72      0    -21      0    166      0      0      0    -25      0      0    161      0      0      0      0      0    -19      0      0      0      0     49     69      0      0     49      0      0      0    -36      0      0      0      0      0      0      0      0      0      0    198      0
      9     11     10     11	    469    307     26     31      2      0     80      0      0      0      0    -16     62      0      0      0      0      0      0      0      0      0      0      0     33      0      0      0      0    232    -29      0      0      0      0      0    132      0      0     39      0     10      0      0      0      0      0      0      0      0      0      0     51      0      0      0      0      0      0      0      0      0      0      0      0
      6     12     12     12	    236    108     28     33      7      0      0     32      0      0     75    -25      0      0      0      0      0      0      0      0     86      0     92      0      0      0      0      0      0     11      0     61      0    127      0      0      0    130      0      0      0      8      0      0      0      0      0      0      0      0      0      0      0      0      0      0      0      0      0      0     24      0      0      0      0
      8     14     12     10	    208    129     14     17      3      0      0      0     -1     10     40      0      0      0      0      0    135    121      0    131      0      0      0      0      0     91      0      0     -6    -19      0      0     77      0     59     60      0      2      0      0      0      0      0      0      0      0    164      0      0    -36     51      0      0      0      0      0      0      0      0      0      0      0      0     -6      0
      7     14     13     15	    366    158     18     19      7      0      0      0      0      0      0     65      0      0      0      0      0      0      0    193      0      0      0      0      0      0      0      0      0      0      0      0     12      0    114    -39      0      0    281      0      0      0      0      0     29      0      0      0     13      0      0      0      0      0      0    211      0      0      1      0      0    193      0    187      0
      9     11     15     11	    288     64     15     19      8      0     29      0      0      0      0      0      0      0      0      0      0      0      0      0      0      0      0      0      0      0      0      0      0      0     22      0      0      0      0      0      0      0      0      0      0      0     77      0      0      0      0      0      0      0      0      0      0      0      0      0      0      0      0      0    132    110      0      0    109
     10     10     12     10	    437    201     30     34      6      0      0      0      0     98      0      0      0      0      0      0    341      0      0      0    203      0      0    204     28     96      0      0      0    318      0    233      0      0      0      0      0      0      0      0      0      0      0      0      0      0      0      0      0      0      0      0      0    211      0      0      0      0      0      0      0      0      0      0     -8
      6     10     13     14	    198    123     10     12      3      0      0      0      0    117      0      0      0      0      0      0      0      0     64      0     34      0      0      0      0      0      0     22      0      0      0      0      0      0      0      0      0      0      0      0    138    148      0      0      9      0      0      0      0      0      0      0      0      0      0      0      0      0     -1      0      0    -25    130      0      0
      7     14     14     12	    262    106     20     23      4      0      0      0      0     92      0      0      0      0    150      0      0     27      0      0     46      0     65      0      0      0    -34      0      0    167    113      0      0      0    158      0      0     43      0      0    -17      0      0      0      0      0    146      0      0      0      0      0      0      0      0      0      0      0      0      0      0     -9      0      0     59
     10     15     10     14	    255    154     12     23      5      0    113      0      0     83      0     43      3      0    -49      0     89      0      0      0      0     93      0      0     79      0      0      0      0     12      0      0      0      0      0     23      0    122      0      0     75      0    -39      0      0      0      0      0      0      0      0      0      0      1      0      0     -1      0      0      0      0      0     90      0     88
      9     10     12     13	    213    137     12     33      8      0      0      0      0      0      0    -14      0      0      0      0      0      0      0      0      0     81     97      0      0      0      0      0    118      0    148      0      0      0      0      0      0     55      0      0      0      0      0      0      0     31      0      0      0      0      0      0      0      0      0      0      0      0      0      0      0     -5      0      0      0
     12     12     10     14	    393    118     28     32      1      0     65     87      0     40      0      0     40      0     12      0      0      0     50    -56      0      0      0     27      0      0      0      0      0      0      0    -46      0      0    125      0      0      0    102      0      0      0    146      0      0      0     94     -3    123      0      0     24      0      0    132      0      0      0      0      0      0      0      0      0    196
      9     15     13     13	    364    225     32     35      8      0      0      0    167      0      0      0      0      0      0    161      0      0      0      0      0      0      0      0      0      0      0      0      0      0      0    131      0      0      0    202    -31      0    281      0      0      0    -39    112      0      0      0      0      0      0      0      0      0    193    110      0    -25     -9      0     -5      0      0     24      0      0
      7     10     13     14	    490    337     16     22      7      0      0      0      0      0     18     18      0    -13      0      0    185      0      0      0      0    216      0      0      0      0     94      0      0      0    117      0      0    251      0    372      0      0      0      0      0    304      0    164      0      0      0      0      0      0      0      0      0      0      0      0    130      0     90      0      0     24      0      0      0
     11     11     14     14	    343    111     19     29      8    101      0      0    104      0      0      0      0     12      0    147      0      0      0      0      0    160      0      0      0      0      0      0      0      0    175      0      0      0    -13      0     24      0      0      0      0    199      0      0      0      0      0      0      0    198      0      0     -6    187      0      0      0      0      0      0      0      0      0      0     66
      8     15     13     13	    402     53     20     32      5      0    120     68    206     29      0      0      0      0      0     93      0      0      0      0      0      6      0      0      0      0    109      0      0      0      0      0      0      0      0      0      0      0    228     76      0      0    -36      0    125      0      1      0      5      0      0      0      0      0    109     -8      0     59     88      0    196      0      0     66      0